(set-logic ALL)
(declare-fun var0 () String)
(assert (str.in_re var0 (re.++ (re.union (re.union (str.to_re "000") (str.to_re "111")) (re.union (str.to_re "22") (str.to_re "3"))) (re.++ (re.+ (re.union (str.to_re "4") (str.to_re "55"))) (re.++ (re.union (re.+ (str.to_re "666")) (re.+ (str.to_re "7"))) (re.++ (re.union (re.union (str.to_re "888") (str.to_re "99")) (re.union (str.to_re "aa") (str.to_re "bb"))) (re.++ (re.* (re.union (str.to_re "ccc") (str.to_re "d"))) (re.++ (re.union (re.* (str.to_re "ee")) (re.* (str.to_re "fff"))) (re.++ (re.union (re.+ (str.to_re "ggg")) (re.+ (str.to_re "hh"))) (re.++ (re.+ (re.+ (str.to_re "ii"))) (re.++ (re.+ (re.+ (str.to_re "jj"))) (re.* (re.union (str.to_re "kkk") (str.to_re "l"))))))))))))))
(assert (<= 401 (str.len var0)))
(check-sat)